2054590
12 11 123742
11 20 34793
20 6 207524
6 10 253563
10 16 21151
16 4 223221
4 19 238490
19 15 105167
15 8 67784
8 14 61570
14 18 103707
18 5 90145
5 13 141281
13 17 27808
17 3 20583
3 2 14476
2 1 106843
1 7 35813
7 9 126907
9 12 50022
